
Gurobi 9.5.0 (linux64) logging started Tue Nov  7 13:23:09 2023

Set parameter LogFile to value "/lustre1/scratch/348/vsc34888/JointResearch/05.Models/06.Benchmarking/E.Representative_days_based_on_Line_Benefits_OptModel/3-bus_ByStages_nc60/openStarNet_3-bus_ByStages_nc60.log"
Set parameter Method to value 2
Set parameter MIPFocus to value 1
Set parameter Presolve to value 2
Set parameter RINS to value 100
Set parameter MIPGap to value 0.01
Set parameter Threads to value 36
Set parameter TimeLimit to value 604800
Set parameter IterationLimit to value 760000000
Gurobi Optimizer version 9.5.0 build v9.5.0rc5 (linux64)
Thread count: 36 physical cores, 36 logical processors, using up to 36 threads
Optimize a model with 3963 rows, 1798 columns and 11429 nonzeros
Model fingerprint: 0x3c43cfa2
Variable types: 1789 continuous, 9 integer (9 binary)
Coefficient statistics:
  Matrix range     [1e-02, 8e+02]
  Objective range  [1e+00, 1e+00]
  Bounds range     [9e-06, 2e+00]
  RHS range        [9e-06, 1e+00]
Presolve removed 1443 rows and 424 columns
Presolve time: 0.01s
Presolved: 2520 rows, 1374 columns, 8925 nonzeros
Variable types: 1365 continuous, 9 integer (9 binary)
Found heuristic solution: objective 78.1986615
Root relaxation presolved: 2520 rows, 1374 columns, 8925 nonzeros

Root barrier log...

Ordering time: 0.00s

Barrier statistics:
 Dense cols : 9
 AA' NZ     : 2.232e+04
 Factor NZ  : 5.056e+04 (roughly 2 MB of memory)
 Factor Ops : 1.101e+06 (less than 1 second per iteration)
 Threads    : 1

                  Objective                Residual
Iter       Primal          Dual         Primal    Dual     Compl     Time
   0   3.80696041e+05 -1.02713091e+08  1.52e+01 1.97e+02  3.20e+04     0s
   1   2.39818204e+04 -2.05160265e+06  9.98e-01 1.53e-10  1.03e+03     0s
   2   2.46957869e+03 -6.47921371e+05  4.12e-02 1.00e-09  1.45e+02     0s
   3   1.49134582e+03 -1.37668300e+04  6.71e-04 9.71e-11  3.12e+00     0s
   4   2.57077560e+02 -1.92440527e+03  9.52e-06 3.96e-11  4.45e-01     0s
   5   1.29269361e+02 -2.90174056e+02  1.34e-06 4.57e-12  8.55e-02     0s
   6   9.18461681e+01 -2.42511415e+01  3.32e-07 9.46e-13  2.37e-02     0s
   7   8.18008419e+01  4.38847116e+01  1.42e-07 9.09e-13  7.73e-03     0s
   8   7.41972238e+01  6.08139097e+01  4.73e-08 9.09e-13  2.73e-03     0s
   9   7.13729083e+01  6.67341518e+01  2.44e-08 1.82e-12  9.45e-04     0s
  10   7.04154829e+01  6.80119514e+01  1.64e-08 9.09e-13  4.90e-04     0s
  11   6.95315874e+01  6.85313871e+01  4.14e-09 1.82e-12  2.04e-04     0s
  12   6.90238146e+01  6.88104772e+01  7.59e-10 9.09e-13  4.35e-05     0s
  13   6.89667910e+01  6.88718769e+01  4.33e-10 9.09e-13  1.93e-05     0s
  14   6.89358510e+01  6.88728019e+01  2.74e-10 1.82e-12  1.28e-05     0s
  15   6.88869685e+01  6.88800790e+01  2.32e-11 1.82e-12  1.40e-06     0s
  16   6.88818676e+01  6.88818605e+01  6.19e-10 1.82e-12  1.43e-09     0s
  17   6.88818624e+01  6.88818624e+01  1.01e-11 9.09e-13  1.43e-12     0s

Barrier solved model in 17 iterations and 0.07 seconds (0.05 work units)
Optimal objective 6.88818624e+01


Root relaxation: objective 6.888186e+01, 245 iterations, 0.06 seconds (0.04 work units)

    Nodes    |    Current Node    |     Objective Bounds      |     Work
 Expl Unexpl |  Obj  Depth IntInf | Incumbent    BestBd   Gap | It/Node Time

     0     0   68.88186    0    3   78.19866   68.88186  11.9%     -    0s
H    0     0                      69.2684005   68.88186  0.56%     -    0s

Cutting planes:
  MIR: 74

Explored 1 nodes (245 simplex iterations) in 0.10 seconds (0.07 work units)
Thread count was 36 (of 36 available processors)

Solution count 2: 69.2684 78.1987 

Optimal solution found (tolerance 1.00e-02)
Best objective 6.926840046631e+01, best bound 6.888186241006e+01, gap 0.5580%

Gurobi 9.5.0 (linux64) logging started Tue Nov  7 13:23:10 2023

Set parameter LogFile to value "/lustre1/scratch/348/vsc34888/JointResearch/05.Models/06.Benchmarking/E.Representative_days_based_on_Line_Benefits_OptModel/3-bus_ByStages_nc60/openStarNet_3-bus_ByStages_nc60.log"
Set parameter Method to value 2
Set parameter MIPFocus to value 1
Set parameter Presolve to value 2
Set parameter RINS to value 100
Set parameter MIPGap to value 0.01
Set parameter Threads to value 36
Set parameter TimeLimit to value 604800
Set parameter IterationLimit to value 760000000
No parameters matching 'relax_integrality' found
Gurobi Optimizer version 9.5.0 build v9.5.0rc5 (linux64)
Thread count: 36 physical cores, 36 logical processors, using up to 36 threads
Optimize a model with 3963 rows, 1789 columns and 9260 nonzeros
Model fingerprint: 0x1621607e
Coefficient statistics:
  Matrix range     [1e-02, 8e+02]
  Objective range  [1e+00, 1e+00]
  Bounds range     [9e-06, 2e+00]
  RHS range        [9e-06, 2e+00]
Presolve removed 3543 rows and 964 columns
Presolve time: 0.00s
Presolved: 420 rows, 825 columns, 1605 nonzeros

Ordering time: 0.00s

Barrier statistics:
 AA' NZ     : 1.020e+03
 Factor NZ  : 1.680e+03 (roughly 1 MB of memory)
 Factor Ops : 8.400e+03 (less than 1 second per iteration)
 Threads    : 1

                  Objective                Residual
Iter       Primal          Dual         Primal    Dual     Compl     Time
   0   7.71076258e+05 -9.99050223e+07  3.47e+01 6.06e+02  9.12e+04     0s
   1   4.31782810e+04 -1.46517980e+06  2.36e+00 4.66e-12  2.46e+03     0s
   2   2.37712703e+03 -2.51855332e+05  3.29e-02 1.18e-11  1.71e+02     0s
   3   1.34372956e+03 -4.37127535e+03  3.72e-04 2.39e-12  3.48e+00     0s
   4   3.67356114e+02 -1.89698013e+03  4.30e-05 1.68e-12  1.37e+00     0s
   5   2.07617751e+02 -6.44243576e+02  1.06e-05 2.26e-12  5.16e-01     0s
   6   1.40852150e+02 -1.90313694e+02  2.88e-06 2.26e-12  2.01e-01     0s
   7   1.06937249e+02 -2.45791434e+01  1.12e-06 9.09e-13  7.97e-02     0s
   8   7.77002337e+01  3.85094665e+01  1.68e-07 9.09e-13  2.38e-02     0s
   9   7.05672993e+01  6.62362528e+01  7.45e-09 1.82e-12  2.62e-03     0s
  10   6.94382067e+01  6.90877256e+01  7.33e-10 1.82e-12  2.12e-04     0s
  11   6.92700071e+01  6.92497224e+01  3.25e-11 9.09e-13  1.23e-05     0s
  12   6.92684290e+01  6.92665707e+01  3.09e-11 9.09e-13  1.13e-06     0s
  13   6.92684018e+01  6.92683945e+01  1.99e-11 9.09e-13  4.38e-09     0s
  14   6.92684005e+01  6.92684005e+01  1.82e-11 1.82e-12  5.36e-15     0s

Barrier solved model in 14 iterations and 0.01 seconds (0.01 work units)
Optimal objective 6.92684005e+01

Crossover log...

       0 DPushes remaining with DInf 0.0000000e+00                 0s

      60 PPushes remaining with PInf 0.0000000e+00                 0s
       0 PPushes remaining with PInf 0.0000000e+00                 0s

  Push phase complete: Pinf 0.0000000e+00, Dinf 1.3189450e-13      0s

Iteration    Objective       Primal Inf.    Dual Inf.      Time
      63    6.9268400e+01   0.000000e+00   0.000000e+00      0s

Solved in 63 iterations and 0.01 seconds (0.01 work units)
Optimal objective  6.926840047e+01
